NAME          BLANK   
ROWS
 N  OBJROW
 L  R0000000
COLUMNS
    C0000000  OBJROW     -118.         R0000000  634.        
    C0000001  OBJROW     -52.          R0000000  904.        
    C0000002  OBJROW     -30.          R0000000  91.         
    C0000003  OBJROW     -773.         R0000000  160.        
    C0000004  OBJROW     -412.         R0000000  929.        
    C0000005  OBJROW     -302.         R0000000  9.          
    C0000006  OBJROW     -669.         R0000000  73.         
    C0000007  OBJROW     -260.         R0000000  481.        
    C0000008  OBJROW     -671.         R0000000  338.        
    C0000009  OBJROW     -236.         R0000000  881.        
    C0000010  OBJROW     -229.         R0000000  842.        
    C0000011  OBJROW     -950.         R0000000  591.        
    C0000012  OBJROW     -531.         R0000000  147.        
    C0000013  OBJROW     -735.         R0000000  120.        
    C0000014  OBJROW     -491.         R0000000  9.          
    C0000015  OBJROW     -455.         R0000000  273.        
    C0000016  OBJROW     -195.         R0000000  802.        
    C0000017  OBJROW     -375.         R0000000  505.        
    C0000018  OBJROW     -987.         R0000000  336.        
    C0000019  OBJROW     -687.         R0000000  962.        
    C0000020  OBJROW     -28.          R0000000  632.        
    C0000021  OBJROW     -743.         R0000000  235.        
    C0000022  OBJROW     -780.         R0000000  408.        
    C0000023  OBJROW     -7.           R0000000  723.        
    C0000024  OBJROW     -154.         R0000000  496.        
    C0000025  OBJROW     -528.         R0000000  91.         
    C0000026  OBJROW     -19.          R0000000  998.        
    C0000027  OBJROW     -544.         R0000000  237.        
    C0000028  OBJROW     -505.         R0000000  316.        
    C0000029  OBJROW     -650.         R0000000  663.        
    C0000030  OBJROW     -575.         R0000000  770.        
    C0000031  OBJROW     -331.         R0000000  944.        
    C0000032  OBJROW     -455.         R0000000  75.         
    C0000033  OBJROW     -420.         R0000000  240.        
    C0000034  OBJROW     -847.         R0000000  67.         
    C0000035  OBJROW     -98.          R0000000  870.        
    C0000036  OBJROW     -712.         R0000000  565.        
    C0000037  OBJROW     -315.         R0000000  14.         
    C0000038  OBJROW     -518.         R0000000  723.        
    C0000039  OBJROW     -709.         R0000000  423.        
    C0000040  OBJROW     -308.         R0000000  651.        
    C0000041  OBJROW     -206.         R0000000  623.        
    C0000042  OBJROW     -837.         R0000000  740.        
    C0000043  OBJROW     -926.         R0000000  917.        
    C0000044  OBJROW     -163.         R0000000  70.         
    C0000045  OBJROW     -888.         R0000000  603.        
    C0000046  OBJROW     -179.         R0000000  360.        
    C0000047  OBJROW     -614.         R0000000  107.        
    C0000048  OBJROW     -460.         R0000000  702.        
    C0000049  OBJROW     -694.         R0000000  820.        
RHS
    RHS       R0000000  12085.      
BOUNDS
 BV BOUND     C0000000  1.          
 BV BOUND     C0000001  1.          
 BV BOUND     C0000002  1.          
 BV BOUND     C0000003  1.          
 BV BOUND     C0000004  1.          
 BV BOUND     C0000005  1.          
 BV BOUND     C0000006  1.          
 BV BOUND     C0000007  1.          
 BV BOUND     C0000008  1.          
 BV BOUND     C0000009  1.          
 BV BOUND     C0000010  1.          
 BV BOUND     C0000011  1.          
 BV BOUND     C0000012  1.          
 BV BOUND     C0000013  1.          
 BV BOUND     C0000014  1.          
 BV BOUND     C0000015  1.          
 BV BOUND     C0000016  1.          
 BV BOUND     C0000017  1.          
 BV BOUND     C0000018  1.          
 BV BOUND     C0000019  1.          
 BV BOUND     C0000020  1.          
 BV BOUND     C0000021  1.          
 BV BOUND     C0000022  1.          
 BV BOUND     C0000023  1.          
 BV BOUND     C0000024  1.          
 BV BOUND     C0000025  1.          
 BV BOUND     C0000026  1.          
 BV BOUND     C0000027  1.          
 BV BOUND     C0000028  1.          
 BV BOUND     C0000029  1.          
 BV BOUND     C0000030  1.          
 BV BOUND     C0000031  1.          
 BV BOUND     C0000032  1.          
 BV BOUND     C0000033  1.          
 BV BOUND     C0000034  1.          
 BV BOUND     C0000035  1.          
 BV BOUND     C0000036  1.          
 BV BOUND     C0000037  1.          
 BV BOUND     C0000038  1.          
 BV BOUND     C0000039  1.          
 BV BOUND     C0000040  1.          
 BV BOUND     C0000041  1.          
 BV BOUND     C0000042  1.          
 BV BOUND     C0000043  1.          
 BV BOUND     C0000044  1.          
 BV BOUND     C0000045  1.          
 BV BOUND     C0000046  1.          
 BV BOUND     C0000047  1.          
 BV BOUND     C0000048  1.          
 BV BOUND     C0000049  1.          
ENDATA
